benchmarks/crosswords/mzn/crossword3_11.ozn
output ([(((("\n"++problem_name)++"\n")++"L:")++show(L))++"\n"]++[if problem[i,j]==0 then "*" else show(letters[fix(L[problem[i,j]])]) endif++if j==cols then "\n" else "" endif | i in 1..rows, j in 1..cols, ])++["\n"];
int: rows = 15;
int: cols = 15;
array [1..rows,1..cols] of int: problem = [|1,2,3,4,5,0,6,7,8,9,0,10,11,12,13|14,15,16,17,18,19,20,21,22,23,0,24,25,26,27|28,29,30,31,32,33,34,35,36,37,38,39,40,41,42|43,44,45,46,0,47,48,49,50,51,52,53,54,55,56|57,58,59,0,60,61,62,63,0,64,65,66,0,0,0|0,0,0,67,68,69,70,0,71,72,73,0,74,75,76|77,78,79,80,81,82,0,83,84,85,0,86,87,88,89|90,91,92,93,94,0,95,96,97,0,98,99,100,101,102|103,104,105,106,0,107,108,109,0,110,111,112,113,114,115|116,117,118,0,119,120,121,0,122,123,124,125,0,0,0|0,0,0,126,127,128,0,129,130,131,132,0,133,134,135|136,137,138,139,140,141,142,143,144,145,0,146,147,148,149|150,151,152,153,154,155,156,157,158,159,160,161,162,163,164|165,166,167,168,0,169,170,171,172,173,174,175,176,177,178|179,180,181,182,0,183,184,185,186,0,187,188,189,190,191|];
int: num_letters = 26;
array [1..num_letters] of string: letters = ["a","b","c","d","e","f","g","h","i","j","k","l","m","n","o","p","q","r","s","t","u","v","w","x","y","z"];
int: N = 191;
array [0..N] of int: L;
string: problem_name = "15.02, 15 x 15";
