benchmarks/crosswords/mzn/crossword3_11.res
REGULAR
REGULAR
REGULAR
REGULAR
REGULAR
REGULAR
REGULAR
REGULAR
REGULAR
REGULAR
REGULAR
REGULAR
REGULAR
REGULAR
REGULAR
REGULAR
REGULAR
REGULAR
REGULAR
REGULAR
REGULAR
REGULAR
REGULAR
REGULAR
REGULAR
REGULAR
REGULAR
REGULAR
REGULAR
REGULAR
REGULAR
REGULAR
REGULAR
REGULAR
REGULAR
REGULAR
REGULAR
REGULAR
REGULAR
REGULAR
REGULAR
REGULAR
REGULAR
REGULAR
REGULAR
REGULAR
REGULAR
REGULAR
REGULAR
REGULAR
REGULAR
REGULAR
REGULAR
REGULAR
REGULAR
REGULAR
REGULAR
REGULAR
REGULAR
REGULAR
REGULAR
REGULAR
REGULAR
REGULAR
REGULAR
REGULAR
REGULAR
REGULAR
REGULAR
REGULAR
REGULAR
REGULAR
REGULAR
REGULAR
REGULAR
REGULAR
REGULAR
REGULAR
REGULAR
REGULAR
L = array1d(0..191, [1, 1, 8, 19, 1, 16, 19, 5, 4, 15, 1, 7, 1, 19, 20, 19, 5, 14, 9, 1, 20, 18, 5, 3, 23, 1, 14, 7, 3, 9, 18, 20, 14, 5, 3, 15, 16, 15, 18, 8, 20, 14, 1, 5, 18, 9, 5, 19, 5, 20, 1, 14, 9, 3, 19, 1, 6, 18, 9, 6, 5, 21, 12, 19, 9, 21, 19, 8, 3, 1, 5, 19, 18, 13, 5, 19, 21, 19, 15, 8, 3, 1, 14, 6, 1, 15, 19, 14, 5, 11, 4, 5, 20, 1, 6, 5, 5, 7, 4, 18, 1, 23, 1, 4, 12, 15, 2, 5, 1, 18, 18, 1, 1, 26, 1, 2, 1, 3, 18, 20, 1, 13, 14, 5, 5, 2, 1, 1, 2, 19, 15, 9, 18, 5, 21, 4, 5, 20, 1, 19, 14, 5, 16, 13, 15, 3, 19, 7, 18, 5, 19, 20, 19, 9, 7, 15, 12, 15, 3, 1, 13, 18, 1, 8, 16, 16, 1, 5, 12, 13, 21, 20, 1, 12, 15, 18, 20, 5, 16, 1, 13, 12, 1, 1, 7, 1, 18, 20, 5, 19, 14, 21]);
----------

%%  runtime:       6.761 (6761.907 ms)
%%  solvetime:     0.451 (451.816 ms)
%%  solutions:     1
%%  variables:     10048
%%  propagators:   13096
%%  propagations:  1035150
%%  nodes:         305
%%  failures:      126
%%  restarts:      0
%%  peak depth:    61

GECODE_TUPLESET_MEM
GECODE_TUPLESET_MEM
GECODE_TUPLESET_MEM
GECODE_TUPLESET_MEM
GECODE_TUPLESET_MEM
GECODE_TUPLESET_MEM
GECODE_TUPLESET_MEM
GECODE_TUPLESET_MEM
GECODE_TUPLESET_MEM
GECODE_TUPLESET_MEM
GECODE_TUPLESET_MEM
GECODE_TUPLESET_MEM
GECODE_TUPLESET_MEM
GECODE_TUPLESET_MEM
GECODE_TUPLESET_MEM
GECODE_TUPLESET_MEM
GECODE_TUPLESET_MEM
GECODE_TUPLESET_MEM
GECODE_TUPLESET_MEM
GECODE_TUPLESET_MEM
GECODE_TUPLESET_MEM
GECODE_TUPLESET_MEM
GECODE_TUPLESET_MEM
GECODE_TUPLESET_MEM
GECODE_TUPLESET_MEM
GECODE_TUPLESET_MEM
GECODE_TUPLESET_MEM
GECODE_TUPLESET_MEM
GECODE_TUPLESET_MEM
GECODE_TUPLESET_MEM
GECODE_TUPLESET_MEM
GECODE_TUPLESET_MEM
GECODE_TUPLESET_MEM
GECODE_TUPLESET_MEM
GECODE_TUPLESET_MEM
GECODE_TUPLESET_MEM
GECODE_TUPLESET_MEM
GECODE_TUPLESET_MEM
GECODE_TUPLESET_MEM
GECODE_TUPLESET_MEM
GECODE_TUPLESET_MEM
GECODE_TUPLESET_MEM
GECODE_TUPLESET_MEM
GECODE_TUPLESET_MEM
GECODE_TUPLESET_MEM
GECODE_TUPLESET_MEM
GECODE_TUPLESET_MEM
GECODE_TUPLESET_MEM
GECODE_TUPLESET_MEM
GECODE_TUPLESET_MEM
GECODE_TUPLESET_MEM
GECODE_TUPLESET_MEM
GECODE_TUPLESET_MEM
GECODE_TUPLESET_MEM
GECODE_TUPLESET_MEM
GECODE_TUPLESET_MEM
GECODE_TUPLESET_MEM
GECODE_TUPLESET_MEM
GECODE_TUPLESET_MEM
GECODE_TUPLESET_MEM
GECODE_TUPLESET_MEM
GECODE_TUPLESET_MEM
GECODE_TUPLESET_MEM
GECODE_TUPLESET_MEM
GECODE_TUPLESET_MEM
GECODE_TUPLESET_MEM
GECODE_TUPLESET_MEM
GECODE_TUPLESET_MEM
GECODE_TUPLESET_MEM
GECODE_TUPLESET_MEM
GECODE_TUPLESET_MEM
GECODE_TUPLESET_MEM
GECODE_TUPLESET_MEM
GECODE_TUPLESET_MEM
GECODE_TUPLESET_MEM
GECODE_TUPLESET_MEM
GECODE_TUPLESET_MEM
GECODE_TUPLESET_MEM
GECODE_TUPLESET_MEM
GECODE_TUPLESET_MEM
L = array1d(0..191, [1, 1, 18, 1, 2, 19, 1, 12, 15, 5, 12, 5, 5, 18, 4, 5, 18, 1, 9, 12, 13, 5, 14, 20, 5, 18, 13, 1, 1, 14, 20, 8, 18, 15, 16, 15, 3, 5, 14, 20, 18, 9, 3, 13, 1, 19, 19, 7, 5, 14, 5, 18, 15, 21, 19, 12, 25, 19, 12, 25, 1, 7, 18, 1, 14, 1, 16, 18, 8, 5, 5, 2, 1, 8, 11, 9, 13, 20, 8, 18, 5, 1, 4, 3, 1, 12, 4, 1, 4, 15, 18, 5, 8, 1, 2, 3, 1, 4, 3, 1, 13, 5, 15, 1, 2, 5, 4, 4, 1, 2, 3, 1, 14, 1, 1, 14, 16, 5, 1, 4, 1, 13, 4, 15, 18, 1, 15, 1, 11, 18, 5, 14, 1, 2, 1, 20, 1, 2, 1, 14, 4, 15, 14, 9, 14, 7, 18, 5, 14, 15, 19, 5, 14, 19, 1, 20, 9, 15, 14, 1, 12, 9, 19, 20, 19, 11, 1, 14, 5, 1, 14, 20, 9, 19, 5, 16, 20, 9, 3, 19, 21, 5, 20, 19, 1, 19, 19, 20, 5, 19, 19, 1]);
----------

%%  runtime:       0.725 (725.757 ms)
%%  solvetime:     0.145 (145.761 ms)
%%  solutions:     1
%%  variables:     10048
%%  propagators:   12994
%%  propagations:  232074
%%  nodes:         107
%%  failures:      21
%%  restarts:      0
%%  peak depth:    74

GECODE_TUPLESET_SPEED
GECODE_TUPLESET_SPEED
GECODE_TUPLESET_SPEED
GECODE_TUPLESET_SPEED
GECODE_TUPLESET_SPEED
GECODE_TUPLESET_SPEED
GECODE_TUPLESET_SPEED
GECODE_TUPLESET_SPEED
GECODE_TUPLESET_SPEED
GECODE_TUPLESET_SPEED
GECODE_TUPLESET_SPEED
GECODE_TUPLESET_SPEED
GECODE_TUPLESET_SPEED
GECODE_TUPLESET_SPEED
GECODE_TUPLESET_SPEED
GECODE_TUPLESET_SPEED
GECODE_TUPLESET_SPEED
GECODE_TUPLESET_SPEED
GECODE_TUPLESET_SPEED
GECODE_TUPLESET_SPEED
GECODE_TUPLESET_SPEED
GECODE_TUPLESET_SPEED
GECODE_TUPLESET_SPEED
GECODE_TUPLESET_SPEED
GECODE_TUPLESET_SPEED
GECODE_TUPLESET_SPEED
GECODE_TUPLESET_SPEED
GECODE_TUPLESET_SPEED
GECODE_TUPLESET_SPEED
GECODE_TUPLESET_SPEED
GECODE_TUPLESET_SPEED
GECODE_TUPLESET_SPEED
GECODE_TUPLESET_SPEED
GECODE_TUPLESET_SPEED
GECODE_TUPLESET_SPEED
GECODE_TUPLESET_SPEED
GECODE_TUPLESET_SPEED
GECODE_TUPLESET_SPEED
GECODE_TUPLESET_SPEED
GECODE_TUPLESET_SPEED
GECODE_TUPLESET_SPEED
GECODE_TUPLESET_SPEED
GECODE_TUPLESET_SPEED
GECODE_TUPLESET_SPEED
GECODE_TUPLESET_SPEED
GECODE_TUPLESET_SPEED
GECODE_TUPLESET_SPEED
GECODE_TUPLESET_SPEED
GECODE_TUPLESET_SPEED
GECODE_TUPLESET_SPEED
GECODE_TUPLESET_SPEED
GECODE_TUPLESET_SPEED
GECODE_TUPLESET_SPEED
GECODE_TUPLESET_SPEED
GECODE_TUPLESET_SPEED
GECODE_TUPLESET_SPEED
GECODE_TUPLESET_SPEED
GECODE_TUPLESET_SPEED
GECODE_TUPLESET_SPEED
GECODE_TUPLESET_SPEED
GECODE_TUPLESET_SPEED
GECODE_TUPLESET_SPEED
GECODE_TUPLESET_SPEED
GECODE_TUPLESET_SPEED
GECODE_TUPLESET_SPEED
GECODE_TUPLESET_SPEED
GECODE_TUPLESET_SPEED
GECODE_TUPLESET_SPEED
GECODE_TUPLESET_SPEED
GECODE_TUPLESET_SPEED
GECODE_TUPLESET_SPEED
GECODE_TUPLESET_SPEED
GECODE_TUPLESET_SPEED
GECODE_TUPLESET_SPEED
GECODE_TUPLESET_SPEED
GECODE_TUPLESET_SPEED
GECODE_TUPLESET_SPEED
GECODE_TUPLESET_SPEED
GECODE_TUPLESET_SPEED
GECODE_TUPLESET_SPEED
L = array1d(0..191, [1, 1, 18, 1, 2, 19, 1, 12, 15, 5, 12, 5, 5, 18, 4, 5, 18, 1, 9, 12, 13, 5, 14, 20, 5, 18, 13, 1, 1, 14, 20, 8, 18, 15, 16, 15, 3, 5, 14, 20, 18, 9, 3, 13, 1, 19, 19, 7, 5, 14, 5, 18, 15, 21, 19, 12, 25, 19, 12, 25, 1, 7, 18, 1, 14, 1, 16, 18, 8, 5, 5, 2, 1, 8, 11, 9, 13, 20, 8, 18, 5, 1, 4, 3, 1, 12, 4, 1, 4, 15, 18, 5, 8, 1, 2, 3, 1, 4, 3, 1, 13, 5, 15, 1, 2, 5, 4, 4, 1, 2, 3, 1, 14, 1, 1, 14, 16, 5, 1, 4, 1, 13, 4, 15, 18, 1, 15, 1, 11, 18, 5, 14, 1, 2, 1, 20, 1, 2, 1, 14, 4, 15, 14, 9, 14, 7, 18, 5, 14, 15, 19, 5, 14, 19, 1, 20, 9, 15, 14, 1, 12, 9, 19, 20, 19, 11, 1, 14, 5, 1, 14, 20, 9, 19, 5, 16, 20, 9, 3, 19, 21, 5, 20, 19, 1, 19, 19, 20, 5, 19, 19, 1]);
----------

%%  runtime:       0.721 (721.013 ms)
%%  solvetime:     0.137 (137.617 ms)
%%  solutions:     1
%%  variables:     10048
%%  propagators:   12994
%%  propagations:  230429
%%  nodes:         107
%%  failures:      21
%%  restarts:      0
%%  peak depth:    74

COMPACT_TABLE
COMPACT_TABLE
COMPACT_TABLE
COMPACT_TABLE
COMPACT_TABLE
COMPACT_TABLE
COMPACT_TABLE
COMPACT_TABLE
COMPACT_TABLE
COMPACT_TABLE
COMPACT_TABLE
COMPACT_TABLE
COMPACT_TABLE
COMPACT_TABLE
COMPACT_TABLE
COMPACT_TABLE
COMPACT_TABLE
COMPACT_TABLE
COMPACT_TABLE
COMPACT_TABLE
COMPACT_TABLE
COMPACT_TABLE
COMPACT_TABLE
COMPACT_TABLE
COMPACT_TABLE
COMPACT_TABLE
COMPACT_TABLE
COMPACT_TABLE
COMPACT_TABLE
COMPACT_TABLE
COMPACT_TABLE
COMPACT_TABLE
COMPACT_TABLE
COMPACT_TABLE
COMPACT_TABLE
COMPACT_TABLE
COMPACT_TABLE
COMPACT_TABLE
COMPACT_TABLE
COMPACT_TABLE
COMPACT_TABLE
COMPACT_TABLE
COMPACT_TABLE
COMPACT_TABLE
COMPACT_TABLE
COMPACT_TABLE
COMPACT_TABLE
COMPACT_TABLE
COMPACT_TABLE
COMPACT_TABLE
COMPACT_TABLE
COMPACT_TABLE
COMPACT_TABLE
COMPACT_TABLE
COMPACT_TABLE
COMPACT_TABLE
COMPACT_TABLE
COMPACT_TABLE
COMPACT_TABLE
COMPACT_TABLE
COMPACT_TABLE
COMPACT_TABLE
COMPACT_TABLE
COMPACT_TABLE
COMPACT_TABLE
COMPACT_TABLE
COMPACT_TABLE
COMPACT_TABLE
COMPACT_TABLE
COMPACT_TABLE
COMPACT_TABLE
COMPACT_TABLE
COMPACT_TABLE
COMPACT_TABLE
COMPACT_TABLE
COMPACT_TABLE
COMPACT_TABLE
COMPACT_TABLE
COMPACT_TABLE
COMPACT_TABLE
L = array1d(0..191, [1, 1, 18, 1, 2, 19, 1, 12, 15, 5, 12, 5, 5, 18, 4, 5, 18, 1, 9, 12, 13, 5, 14, 20, 5, 18, 13, 1, 1, 14, 20, 8, 18, 15, 16, 15, 3, 5, 14, 20, 18, 9, 3, 13, 1, 19, 19, 7, 5, 14, 5, 18, 15, 21, 19, 12, 25, 19, 12, 25, 1, 7, 18, 1, 14, 1, 16, 18, 8, 5, 5, 2, 1, 8, 11, 9, 13, 20, 8, 18, 5, 1, 4, 3, 1, 12, 4, 1, 4, 15, 18, 5, 8, 1, 2, 3, 1, 4, 3, 1, 13, 5, 15, 1, 2, 5, 4, 4, 1, 2, 3, 1, 14, 1, 1, 14, 16, 5, 1, 4, 1, 13, 4, 15, 18, 1, 15, 1, 11, 18, 5, 14, 1, 2, 1, 20, 1, 2, 1, 14, 4, 15, 14, 9, 14, 7, 18, 5, 14, 15, 19, 5, 14, 19, 1, 20, 9, 15, 14, 1, 12, 9, 19, 20, 19, 11, 1, 14, 5, 1, 14, 20, 9, 19, 5, 16, 20, 9, 3, 19, 21, 5, 20, 19, 1, 19, 19, 20, 5, 19, 19, 1]);
----------

%%  runtime:       0.846 (846.165 ms)
%%  solvetime:     0.068 (68.549 ms)
%%  solutions:     1
%%  variables:     10048
%%  propagators:   12994
%%  propagations:  227001
%%  nodes:         107
%%  failures:      21
%%  restarts:      0
%%  peak depth:    74

